SECTION Graph
Nodes 370
Edges 721
E 1 6 7
E 1 341 1
E 1 342 1
E 1 343 6
E 2 343 5
E 3 341 6
E 3 343 1
E 4 342 6
E 4 343 1
E 5 10 7
E 5 336 1
E 5 337 1
E 5 338 5
E 6 338 6
E 6 339 1
E 6 340 1
E 7 336 5
E 7 338 1
E 7 339 6
E 8 337 5
E 8 338 1
E 8 340 6
E 9 14 7
E 9 331 1
E 9 332 1
E 9 333 6
E 10 333 5
E 10 334 1
E 10 335 1
E 11 331 6
E 11 333 1
E 11 334 5
E 12 332 6
E 12 333 1
E 12 335 5
E 13 18 7
E 13 326 1
E 13 327 1
E 13 328 5
E 14 328 6
E 14 329 1
E 14 330 1
E 15 326 5
E 15 328 1
E 15 329 6
E 16 327 5
E 16 328 1
E 16 330 6
E 17 22 7
E 17 318 1
E 17 320 1
E 17 321 1
E 18 323 5
E 18 324 1
E 18 325 1
E 19 319 5
E 19 323 1
E 19 324 5
E 20 322 5
E 20 323 1
E 20 325 5
E 21 26 7
E 21 313 1
E 21 314 1
E 21 315 5
E 22 315 6
E 22 316 1
E 22 317 1
E 23 313 5
E 23 315 1
E 23 316 6
E 24 314 5
E 24 315 1
E 24 317 6
E 25 296 6
E 25 303 1
E 25 305 1
E 25 307 6
E 26 307 5
E 26 311 1
E 26 312 1
E 27 303 6
E 27 307 1
E 27 311 5
E 28 305 6
E 28 307 1
E 28 312 5
E 29 281 4
E 29 283 2
E 29 290 5
E 29 300 10
E 30 298 4
E 30 300 2
E 31 213 4
E 31 224 2
E 31 245 5
E 31 265 10
E 32 250 6
E 32 265 2
E 32 282 5
E 33 154 1
E 33 160 2
E 33 200 10
E 34 36 3
E 34 192 2
E 34 215 1
E 35 154 3
E 35 181 10
E 36 181 2
E 37 38 1
E 37 58 4
E 37 299 1
E 37 302 2
E 38 56 4
E 38 304 2
E 39 297 16
E 39 310 1
E 40 283 5
E 40 284 4
E 40 290 2
E 40 295 4
E 41 42 10
E 41 290 4
E 41 295 2
E 41 301 2
E 42 306 4
E 42 308 2
E 43 44 1
E 43 249 4
E 43 255 3
E 43 270 2
E 44 254 4
E 44 269 1
E 44 272 2
E 45 274 10
E 45 288 1
E 45 291 1
E 45 294 2
E 46 163 16
E 46 224 5
E 46 245 2
E 46 255 4
E 47 48 10
E 47 245 4
E 47 255 2
E 47 270 3
E 48 279 4
E 48 285 2
E 48 286 3
E 49 50 1
E 49 156 5
E 49 174 1
E 49 188 2
E 50 159 5
E 50 187 1
E 50 191 2
E 51 199 10
E 51 241 1
E 51 250 2
E 51 265 6
E 52 144 5
E 52 157 1
E 52 160 2
E 53 64 5
E 53 157 1
E 53 165 1
E 53 169 2
E 54 175 10
E 54 225 1
E 54 235 2
E 54 238 3
E 55 266 3
E 55 271 1
E 55 276 1
E 55 277 1
E 56 58 1
E 56 277 12
E 56 297 1
E 57 58 12
E 57 59 1
E 57 271 1
E 57 277 1
E 58 60 1
E 59 60 12
E 59 267 2
E 59 268 1
E 60 287 2
E 60 299 4
E 61 118 3
E 61 121 1
E 61 144 12
E 62 64 12
E 62 71 3
E 62 121 1
E 62 125 1
E 63 64 1
E 63 121 12
E 63 144 1
E 63 157 5
E 64 151 1
E 65 229 1
E 65 251 6
E 66 251 9
E 66 275 1
E 67 229 6
E 67 236 4
E 67 251 1
E 67 275 9
E 68 251 4
E 69 82 1
E 69 110 1
E 69 112 6
E 70 83 1
E 70 111 1
E 70 115 6
E 71 72 1
E 71 95 8
E 71 119 1
E 72 79 2
E 72 96 8
E 72 125 3
E 73 74 1
E 73 98 8
E 73 124 1
E 73 132 3
E 74 99 8
E 74 131 2
E 74 135 3
E 75 77 6
E 75 84 1
E 75 91 1
E 76 85 1
E 76 114 6
E 76 117 2
E 76 120 4
E 77 82 1
E 78 83 1
E 78 92 6
E 78 110 2
E 79 116 8
E 79 124 1
E 79 126 3
E 80 84 1
E 80 94 1
E 80 118 8
E 81 85 1
E 81 99 2
E 81 123 4
E 81 131 8
E 82 91 6
E 83 93 6
E 84 100 1
E 85 106 2
E 85 122 4
E 86 107 6
E 87 107 5
E 87 108 1
E 87 109 1
E 87 170 41
E 88 107 1
E 88 108 5
E 89 107 1
E 89 109 5
E 90 322 198
E 91 100 1
E 91 112 1
E 92 93 1
E 92 103 1
E 92 113 2
E 93 104 1
E 93 115 1
E 94 95 1
E 94 100 1
E 94 119 8
E 95 96 1
E 95 101 1
E 96 102 1
E 96 116 2
E 97 98 1
E 97 104 1
E 97 116 1
E 97 124 8
E 98 99 1
E 98 105 1
E 99 106 1
E 100 101 1
E 101 102 1
E 101 112 1
E 102 103 2
E 102 113 1
E 103 104 1
E 103 116 1
E 104 105 1
E 105 106 1
E 105 115 1
E 106 117 1
E 108 167 41
E 109 176 41
E 110 113 6
E 111 114 2
E 111 117 6
E 112 113 1
E 114 161 29
E 115 117 1
E 118 119 1
E 119 121 3
E 120 122 1
E 120 127 5
E 122 123 1
E 122 130 5
E 123 134 5
E 123 141 8
E 124 128 3
E 125 126 2
E 125 151 12
E 126 128 1
E 126 129 1
E 127 130 1
E 127 138 4
E 128 132 1
E 128 133 1
E 129 133 1
E 129 155 11
E 130 134 1
E 130 140 4
E 131 139 3
E 131 141 4
E 132 135 1
E 132 136 1
E 133 136 1
E 133 156 11
E 134 143 4
E 134 153 8
E 135 137 1
E 135 139 2
E 136 137 1
E 136 159 11
E 137 142 2
E 137 164 11
E 138 140 1
E 138 145 3
E 139 142 1
E 139 148 4
E 140 143 1
E 140 147 3
E 141 148 3
E 141 153 5
E 142 163 9
E 142 173 11
E 143 150 3
E 143 162 8
E 145 146 1
E 145 147 1
E 146 149 1
E 146 168 7
E 147 149 1
E 147 150 1
E 148 158 5
E 148 224 17
E 149 152 1
E 149 172 7
E 150 152 1
E 150 179 8
E 151 155 2
E 151 165 5
E 152 178 7
E 152 183 8
E 153 158 3
E 153 162 4
E 154 192 10
E 155 156 1
E 155 174 5
E 156 159 1
E 157 166 2
E 158 163 1
E 158 180 4
E 159 164 1
E 160 166 1
E 160 214 10
E 161 167 1
E 161 189 6
E 162 179 3
E 162 180 3
E 163 184 4
E 164 173 2
E 164 187 5
E 165 174 2
E 165 175 2
E 166 169 1
E 166 220 10
E 167 170 1
E 167 171 1
E 168 172 1
E 168 189 5
E 169 175 1
E 169 225 10
E 170 176 1
E 170 177 1
E 171 177 1
E 171 194 5
E 172 178 1
E 172 195 5
E 173 198 5
E 173 240 14
E 174 185 2
E 175 185 2
E 176 182 1
E 177 182 1
E 177 202 5
E 178 204 5
E 178 223 8
E 179 183 1
E 179 190 3
E 180 184 1
E 180 190 3
E 181 192 3
E 182 186 1
E 182 208 5
E 183 196 3
E 183 223 7
E 184 197 3
E 184 240 12
E 185 188 1
E 186 193 2
E 186 216 5
E 187 198 2
E 187 199 2
E 188 191 1
E 188 238 10
E 189 194 1
E 189 195 1
E 190 196 1
E 190 197 1
E 191 199 1
E 191 241 10
E 192 200 1
E 193 201 1
E 193 227 5
E 194 202 1
E 194 203 1
E 195 203 1
E 195 204 1
E 196 205 1
E 196 206 1
E 197 206 1
E 197 249 12
E 198 213 2
E 198 224 4
E 199 213 2
E 200 214 2
E 200 215 2
E 201 207 1
E 201 232 6
E 202 208 1
E 202 209 1
E 203 209 1
E 203 210 1
E 204 210 1
E 204 239 8
E 205 211 1
E 205 212 1
E 206 212 1
E 206 254 12
E 207 229 4
E 207 236 6
E 208 216 1
E 208 217 1
E 209 217 1
E 209 218 1
E 210 218 1
E 210 242 8
E 211 219 1
E 211 278 19
E 212 237 6
E 212 258 12
E 214 220 1
E 214 226 2
E 215 226 2
E 216 221 1
E 216 227 2
E 217 221 1
E 217 222 1
E 218 222 1
E 218 244 8
E 219 234 4
E 219 281 19
E 220 225 1
E 221 228 1
E 221 230 2
E 222 228 1
E 222 247 8
E 223 234 3
E 223 239 5
E 225 231 2
E 226 231 2
E 227 230 1
E 228 233 2
E 228 263 11
E 230 232 1
E 230 233 1
E 231 235 1
E 232 236 1
E 232 262 9
E 233 259 8
E 234 237 1
E 234 248 5
E 235 243 3
E 236 266 9
E 237 253 5
E 237 273 12
E 238 241 1
E 238 243 2
E 239 242 1
E 239 248 3
E 240 249 3
E 240 255 4
E 241 246 2
E 242 244 1
E 242 252 3
E 243 246 1
E 244 247 1
E 244 256 3
E 245 279 10
E 246 250 1
E 247 259 3
E 247 260 3
E 248 252 1
E 248 253 1
E 249 254 1
E 252 256 1
E 252 257 1
E 253 257 1
E 253 284 12
E 254 258 1
E 256 260 1
E 256 261 1
E 257 261 1
E 258 269 4
E 258 273 6
E 259 262 1
E 259 268 3
E 260 263 1
E 260 264 1
E 261 264 1
E 262 266 1
E 262 271 3
E 263 267 1
E 263 268 2
E 264 267 1
E 265 279 5
E 266 275 4
E 267 287 12
E 268 271 1
E 269 274 2
E 269 283 6
E 270 272 1
E 270 286 10
E 272 274 1
E 272 288 10
E 273 283 4
E 273 284 5
E 274 278 1
E 275 276 6
E 276 280 1
E 277 280 1
E 278 281 1
E 278 291 10
E 279 282 2
E 280 297 12
E 281 293 10
E 282 285 4
E 284 287 4
E 285 289 3
E 286 288 1
E 286 289 2
E 287 295 4
E 288 292 2
E 289 292 1
E 290 306 10
E 291 293 1
E 291 296 2
E 292 294 1
E 293 298 2
E 293 300 4
E 294 296 1
E 294 303 6
E 295 299 2
E 296 298 1
E 298 305 6
E 299 301 2
E 300 306 5
E 301 302 1
E 301 308 10
E 302 304 1
E 302 309 10
E 304 310 10
E 308 309 1
E 309 310 1
E 311 313 7
E 312 314 7
E 316 318 7
E 317 320 7
E 318 319 1
E 319 321 1
E 320 322 1
E 321 322 1
E 321 323 5
E 324 326 7
E 325 327 7
E 329 331 7
E 330 332 7
E 334 336 7
E 335 337 7
E 339 341 7
E 340 342 7
E 1 344 100000
E 2 344 100000
E 3 344 100000
E 4 344 100000
E 5 345 100000
E 6 345 100000
E 7 345 100000
E 8 345 100000
E 9 346 100000
E 10 346 100000
E 11 346 100000
E 12 346 100000
E 13 347 100000
E 14 347 100000
E 15 347 100000
E 16 347 100000
E 17 348 100000
E 18 348 100000
E 19 348 100000
E 20 348 100000
E 21 349 100000
E 22 349 100000
E 23 349 100000
E 24 349 100000
E 25 350 100000
E 26 350 100000
E 27 350 100000
E 28 350 100000
E 29 351 100000
E 30 351 100000
E 31 352 100000
E 32 352 100000
E 33 353 100000
E 34 353 100000
E 35 354 100000
E 36 354 100000
E 37 355 100000
E 38 355 100000
E 39 355 100000
E 40 356 100000
E 41 356 100000
E 42 356 100000
E 43 357 100000
E 44 357 100000
E 45 357 100000
E 46 358 100000
E 47 358 100000
E 48 358 100000
E 49 359 100000
E 50 359 100000
E 51 359 100000
E 52 360 100000
E 53 360 100000
E 54 360 100000
E 55 361 100000
E 56 361 100000
E 57 362 100000
E 58 362 100000
E 59 363 100000
E 60 363 100000
E 61 364 100000
E 62 364 100000
E 63 364 100000
E 64 364 100000
E 65 365 100000
E 66 365 100000
E 67 365 100000
E 68 365 100000
E 69 366 100000
E 70 366 100000
E 71 366 100000
E 72 366 100000
E 73 366 100000
E 74 366 100000
E 75 366 100000
E 76 366 100000
E 77 367 100000
E 78 367 100000
E 79 367 100000
E 80 367 100000
E 81 367 100000
E 82 368 100000
E 83 368 100000
E 84 368 100000
E 85 368 100000
E 86 369 100000
E 87 369 100000
E 88 369 100000
E 89 369 100000
E 90 370 100000
E 91 366 100000
E 92 366 100000
E 93 366 100000
E 94 367 100000
E 95 367 100000
E 96 367 100000
E 97 367 100000
E 98 367 100000
E 99 367 100000
E 100 368 100000
E 101 368 100000
E 102 368 100000
E 103 368 100000
E 104 368 100000
E 105 368 100000
E 106 368 100000
END

SECTION Terminals
Terminals 27
T 344
T 345
T 346
T 347
T 348
T 349
T 350
T 351
T 352
T 353
T 354
T 355
T 356
T 357
T 358
T 359
T 360
T 361
T 362
T 363
T 364
T 365
T 366
T 367
T 368
T 369
T 370
END

EOF
